
Gurobi 6.0.4 (win64) logging started 06/16/15 10:57:18

Read LP format model from file E:\Eigene Dateien\Downloads\Michi shit\VRPTWMS-master\VRPTWMS\instances\mip\fuel\N8-C_DV100-C_SV25_F5_3_No_1.lp
Reading time = 0.00 seconds
(null): 417 rows, 208 columns, 1715 nonzeros
Optimize a model with 417 rows, 208 columns and 1715 nonzeros
Model has 576 quadratic constraints
WARNING: Only barrier available for SOCP models
Coefficient statistics:
  Matrix range    [1e+00, 1e+06]
  Objective range [5e+04, 1e+07]
  Bounds range    [1e+00, 1e+06]
  RHS range       [1e+00, 1e+06]
Presolve removed 42 rows and 23 columns
Presolve time: 0.03s
Presolved: 1463 rows, 752 columns, 6851 nonzeros
Variable types: 521 continuous, 231 integer (188 binary)
Found heuristic solution: objective 8.276220e+07
Optimize a model with 1463 rows, 752 columns and 6851 nonzeros
Coefficient statistics:
  Matrix range    [1e+00, 1e+06]
  Objective range [5e+04, 1e+07]
  Bounds range    [1e+00, 1e+06]
  RHS range       [1e+00, 1e+06]

Concurrent LP optimizer: dual simplex and barrier
Showing barrier log only...

Presolve removed 151 rows and 96 columns
Presolved: 1312 rows, 657 columns, 6176 nonzeros

Root barrier log...

Ordering time: 0.02s

Barrier performed 0 iterations in 0.06 seconds
Barrier solve interrupted - model solved by another algorithm


Solved with dual simplex
Solved in 92 iterations and 0.06 seconds
Optimal objective  4.544968061e+06

Root relaxation: objective 4.544968e+06, 92 iterations, 0.02 seconds

    Nodes    |    Current Node    |     Objective Bounds      |     Work
 Expl Unexpl |  Obj  Depth IntInf | Incumbent    BestBd   Gap | It/Node Time

     0     0 4544968.06    0   26 8.2762e+07 4544968.06  94.5%     -    0s
H    0     0                    4.223560e+07 4544968.06  89.2%     -    0s
     0     0 7822150.31    0   48 4.2236e+07 7822150.31  81.5%     -    0s
H    0     0                    3.255940e+07 7822150.31  76.0%     -    0s
     0     0 1.1677e+07    0   38 3.2559e+07 1.1677e+07  64.1%     -    0s
     0     0 1.1745e+07    0   32 3.2559e+07 1.1745e+07  63.9%     -    0s
     0     0 1.1790e+07    0   38 3.2559e+07 1.1790e+07  63.8%     -    0s
     0     0 1.1790e+07    0   35 3.2559e+07 1.1790e+07  63.8%     -    0s
     0     0 1.1790e+07    0   36 3.2559e+07 1.1790e+07  63.8%     -    0s
     0     0 1.1790e+07    0   35 3.2559e+07 1.1790e+07  63.8%     -    0s
     0     2 1.1790e+07    0   33 3.2559e+07 1.1790e+07  63.8%     -    0s
H   49    35                    3.239290e+07 1.1885e+07  63.3%  14.8    0s
*   72    45              18    3.189770e+07 1.1885e+07  62.7%  14.1    0s
H  118    83                    3.160270e+07 1.1885e+07  62.4%  14.3    0s
H  308   164                    3.153230e+07 1.1986e+07  62.0%  16.4    0s
  7129   945 2.3678e+07   28   26 3.1532e+07 2.2236e+07  29.5%  35.4    5s

Cutting planes:
  Learned: 7
  Gomory: 11
  Cover: 13
  Implied bound: 107
  Clique: 5
  MIR: 30
  Flow cover: 37
  GUB cover: 3
  Zero half: 14

Explored 12110 nodes (540045 simplex iterations) in 8.78 seconds
Thread count was 4 (of 4 available processors)

Optimal solution found (tolerance 1.00e-04)
Best objective 3.153230000000e+07, best bound 3.153230000000e+07, gap 0.0%
k_c1	849997.0
k_c2	919999.0
k_c3	879998.0
k_c4	1000000.0
k_c5	110000.0
k_c6	180001.0
k_c7	50000.0
k_c8	960000.0
k_dN	-0.0
o_1	0.0
o_2	-0.0
o_3	-0.0
o_4	0.0
o_5	0.0
o_6	0.0
o_7	0.0
o_8	0.0
p_1	0.0
p_2	-0.0
p_3	0.0
p_4	0.0
p_5	0.0
p_6	0.0
p_7	0.0
p_8	0.0
phi_c1	3412.0
phi_c2	25394.0
phi_c3	15320.0
phi_c4	35282.0
phi_c5	24311.0
phi_c6	40902.0
phi_c7	10122.0
phi_c8	33476.0
phi_dN	0.0
pi_c1	0.0
pi_c2	200000.0
pi_c3	0.0
pi_c4	0.0
pi_c5	200000.0
pi_c6	0.0
pi_c7	200000.0
pi_c8	200000.0
pi_dN	-0.0
tauD_c1	379001.0
tauD_c2	146725.0
tauD_c3	284501.0
tauD_c4	55000.0
tauD_c5	526975.0
tauD_c6	522651.0
tauD_c7	650000.0
tauD_c8	66524.0
tauD_d0	-0.0
tauD_dN	1000000.0
tauS_c1	0.0
tauS_c2	0.0
tauS_c3	822624.0
tauS_c4	0.0
tauS_c5	851724.0
tauS_c6	0.0
tauS_c7	0.0
tauS_c8	0.0
tauS_d0	-0.0
tauS_dN	1000000.0
x_c1_dN	1.0
x_c2_c3	1.0
x_c3_c1	1.0
x_c4_c5	1.0
x_c5_dN	1.0
x_c6_c7	1.0
x_c7_dN	1.0
x_c8_c2	1.0
x_d0_c4	1.0
x_d0_c6	1.0
x_d0_c8	1.0
